Version identifier: 22.1.0.0 | 2022-03-09 | 1a383f8ce
CPXPARAM_Read_DataCheck                          1
CPXPARAM_TimeLimit                               600
Tried aggregator 4 times.
MIP Presolve eliminated 193776 rows and 14473 columns.
MIP Presolve modified 1824 coefficients.
Aggregator did 182928 substitutions.
Reduced MIP has 15336 rows, 185591 columns, and 386899 nonzeros.
Reduced MIP has 185543 binaries, 48 generals, 0 SOSs, and 0 indicators.
Presolve time = 2.86 sec. (2994.66 ticks)
Tried aggregator 1 time.
Detecting symmetries...
Reduced MIP has 15336 rows, 185591 columns, and 386899 nonzeros.
Reduced MIP has 185543 binaries, 48 generals, 0 SOSs, and 0 indicators.
Presolve time = 0.52 sec. (297.39 ticks)
Probing fixed 73 vars, tightened 0 bounds.
Probing time = 1.14 sec. (101.36 ticks)
Clique table members: 374605.
MIP emphasis: balance optimality and feasibility.
MIP search method: dynamic search.
Parallel mode: deterministic, using up to 8 threads.
Root relaxation solution time = 3.95 sec. (1522.14 ticks)

        Nodes                                         Cuts/
   Node  Left     Objective  IInf  Best Integer    Best Bound    ItCnt     Gap

      0     0       48.4055 11712                     48.4055       28         
      0     0       79.0000  1285                   Fract: 31    29989         
      0     0       79.0000  1086                   Cuts: 124    50603         
      0     0       79.0000  1067                ZeroHalf: 86    76449         
      0     0       79.0000   813                ZeroHalf: 53    99602         

Clique cuts applied:  2
Zero-half cuts applied:  220
Lift and project cuts applied:  3
Gomory fractional cuts applied:  33

Root node processing (before b&c):
  Real time             =  600.05 sec. (250873.36 ticks)
Parallel b&c, 8 threads:
  Real time             =    0.00 sec. (0.00 ticks)
  Sync time (average)   =    0.00 sec.
  Wait time (average)   =    0.00 sec.
                          ------------
Total (root+branch&cut) =  600.05 sec. (250873.36 ticks)
